NAME = SAfile180,
TOURSIZE = 180,
LENGTH = 1960,
106,19,17,68,20,122,134,13,80,121,150,149,107,35,84,130,174,173,175,22,6,132,8,93,79,162,61,15,147,40,46,138,42,21,51,47,178,7,120,115,165,160,92,95,109,30,158,135,52,43,139,152,29,16,12,45,172,116,56,157,108,144,133,25,88,102,129,154,87,86,1,91,98,142,57,113,32,4,50,38,63,11,70,77,128,155,41,83,171,64,66,36,37,23,78,159,153,123,124,55,169,177,104,145,163,74,5,140,71,119,99,49,117,151,161,59,148,9,127,126,101,26,94,48,81,112,65,100,143,146,103,96,170,164,54,28,73,33,125,58,180,176,27,141,82,72,62,137,24,44,118,89,168,14,60,85,114,111,110,105,69,67,131,76,53,31,34,10,97,156,2,18,136,90,167,75,39,3,179,166